unknown
(model
; cardinality of BoundSet is 2
(declare-sort BoundSet 0)
; rep: @uc_BoundSet_0
; rep: @uc_BoundSet_1
; cardinality of UnboundSet is 1
(declare-sort UnboundSet 0)
(declare-fun groundTerm_3 () UnboundSet)
(define-fun IsInBlackCap ((BOUND_VARIABLE_446 BoundSet)) Bool true)
(define-fun IsSwingingWithChildren ((BOUND_VARIABLE_446 BoundSet)) Bool true)
(define-fun IsInBlackHat ((BOUND_VARIABLE_446 BoundSet)) Bool false)
(define-fun IsChildren ((BOUND_VARIABLE_446 BoundSet)) Bool false)
)
sat
(model
; cardinality of BoundSet is 1
(declare-sort BoundSet 0)
; rep: @uc_BoundSet_0
; cardinality of UnboundSet is 1
(declare-sort UnboundSet 0)
(declare-fun groundTerm_6 () UnboundSet)
(define-fun IsInBlackCap ((BOUND_VARIABLE_473 BoundSet)) Bool true)
(define-fun IsSwingingWithChildren ((BOUND_VARIABLE_473 BoundSet)) Bool true)
(define-fun IsInBlackHat ((BOUND_VARIABLE_473 BoundSet)) Bool false)
(define-fun IsChildren ((BOUND_VARIABLE_473 BoundSet)) Bool true)
)
